p cnf 33 110
1 2 3 4 5 0
1 2 3 -4 6 0
1 2 -3 4 5 0
1 2 -3 -4 6 0
1 -2 3 4 5 0
1 -2 3 -4 6 0
1 -2 -3 4 6 0
1 -2 -3 -4 5 0
-1 2 3 4 6 0
-1 2 3 -4 5 0
7 8 9 10 1 2 3 4 11 0
7 8 9 10 1 2 3 -4 12 0
7 8 9 10 1 2 -3 4 14 0
7 8 9 10 1 2 -3 -4 13 0
7 8 9 10 1 -2 3 4 15 0
7 8 9 10 1 -2 3 -4 28 0
7 8 9 10 1 -2 -3 4 28 0
7 8 9 10 1 -2 -3 -4 16 0
7 8 9 10 -1 2 3 4 32 0
7 8 9 10 -1 2 3 -4 17 0
7 8 9 -10 1 2 3 4 18 0
7 8 9 -10 1 2 3 -4 29 0
7 8 9 -10 1 2 -3 4 19 0
7 8 9 -10 1 2 -3 -4 13 0
7 8 9 -10 1 -2 3 4 14 0
7 8 9 -10 1 -2 3 -4 32 0
7 8 9 -10 1 -2 -3 4 32 0
7 8 9 -10 1 -2 -3 -4 16 0
7 8 9 -10 -1 2 3 4 16 0
7 8 9 -10 -1 2 3 -4 16 0
7 8 -9 10 1 2 3 4 33 0
7 8 -9 10 1 2 3 -4 12 0
7 8 -9 10 1 2 -3 4 19 0
7 8 -9 10 1 2 -3 -4 20 0
7 8 -9 10 1 -2 3 4 15 0
7 8 -9 10 1 -2 3 -4 25 0
7 8 -9 10 1 -2 -3 4 32 0
7 8 -9 10 1 -2 -3 -4 16 0
7 8 -9 10 -1 2 3 4 16 0
7 8 -9 10 -1 2 3 -4 16 0
7 8 -9 -10 1 2 3 4 14 0
7 8 -9 -10 1 2 3 -4 16 0
7 8 -9 -10 1 2 -3 4 33 0
7 8 -9 -10 1 2 -3 -4 24 0
7 8 -9 -10 1 -2 3 4 33 0
7 8 -9 -10 1 -2 3 -4 25 0
7 8 -9 -10 1 -2 -3 4 28 0
7 8 -9 -10 1 -2 -3 -4 17 0
7 8 -9 -10 -1 2 3 4 32 0
7 8 -9 -10 -1 2 3 -4 16 0
7 -8 9 10 1 2 3 4 17 0
7 -8 9 10 1 2 3 -4 25 0
7 -8 9 10 1 2 -3 4 26 0
7 -8 9 10 1 2 -3 -4 20 0
7 -8 9 10 1 -2 3 4 21 0
7 -8 9 10 1 -2 3 -4 20 0
7 -8 9 10 1 -2 -3 4 13 0
7 -8 9 10 1 -2 -3 -4 14 0
7 -8 9 10 -1 2 3 4 16 0
7 -8 9 10 -1 2 3 -4 17 0
7 -8 9 -10 1 2 3 4 16 0
7 -8 9 -10 1 2 3 -4 25 0
7 -8 9 -10 1 2 -3 4 14 0
7 -8 9 -10 1 2 -3 -4 13 0
7 -8 9 -10 1 -2 3 4 30 0
7 -8 9 -10 1 -2 3 -4 12 0
7 -8 9 -10 1 -2 -3 4 29 0
7 -8 9 -10 1 -2 -3 -4 15 0
7 -8 9 -10 -1 2 3 4 28 0
7 -8 9 -10 -1 2 3 -4 17 0
7 -8 -9 10 1 2 3 4 17 0
7 -8 -9 10 1 2 3 -4 32 0
7 -8 -9 10 1 2 -3 4 15 0
7 -8 -9 10 1 2 -3 -4 32 0
7 -8 -9 10 1 -2 3 4 30 0
7 -8 -9 10 1 -2 3 -4 13 0
7 -8 -9 10 1 -2 -3 4 29 0
7 -8 -9 10 1 -2 -3 -4 22 0
7 -8 -9 10 -1 2 3 4 29 0
7 -8 -9 10 -1 2 3 -4 15 0
7 -8 -9 -10 1 2 3 4 17 0
7 -8 -9 -10 1 2 3 -4 16 0
7 -8 -9 -10 1 2 -3 4 16 0
7 -8 -9 -10 1 2 -3 -4 16 0
7 -8 -9 -10 1 -2 3 4 30 0
7 -8 -9 -10 1 -2 3 -4 20 0
7 -8 -9 -10 1 -2 -3 4 29 0
7 -8 -9 -10 1 -2 -3 -4 33 0
7 -8 -9 -10 -1 2 3 4 29 0
7 -8 -9 -10 -1 2 3 -4 26 0
-7 8 9 10 1 2 3 4 16 0
-7 8 9 10 1 2 3 -4 32 0
-7 8 9 10 1 2 -3 4 16 0
-7 8 9 10 1 2 -3 -4 16 0
-7 8 9 10 1 -2 3 4 16 0
-7 8 9 10 1 -2 3 -4 28 0
-7 8 9 10 1 -2 -3 4 20 0
-7 8 9 10 1 -2 -3 -4 21 0
-7 8 9 10 -1 2 3 4 27 0
-7 8 9 10 -1 2 3 -4 21 0
-7 8 9 -10 1 2 3 4 16 0
-7 8 9 -10 1 2 3 -4 32 0
-7 8 9 -10 1 2 -3 4 17 0
-7 8 9 -10 1 2 -3 -4 16 0
-7 8 9 -10 1 -2 3 4 16 0
-7 8 9 -10 1 -2 3 -4 32 0
-7 8 9 -10 1 -2 -3 4 16 0
-7 8 9 -10 1 -2 -3 -4 31 0
-7 8 9 -10 -1 2 3 4 12 0
-7 8 9 -10 -1 2 3 -4 23 0
